/*********************************************
 * OPL 12.6.0.0 Data
 * Author: Adrian Rodriguez Bazaga, Pau Rodriguez Esmerats
 * Creation Date: 09/12/2017 at 00:43:46
 *********************************************/

maxConsec=10;
maxPresence=18;
maxHours=2;
minHours=1;
hours=20;
demand= [13 18 18 14 8 5 0 0 2 0 2 0 0 1 0 1 0 0 0 0  ];
nNurses=25;
